28485.4
13 31 95 24 63 97 90 6 79 96 87 54 64 85 36 82 17 5 51 70 74 4 98 42 84 12 69 16 0 49 23 26 62 37 71 9 66 77 11 73 86 91 30 3 55 94 22 38 29 40 41 58 2 48 50 99 20 15 57 46 7 59 81 43 75 83 14 21 92 61 39 60 33 56 18 53 52 1 80 28 8 27 76 89 78 93 19 72 35 34 65 32 68 25 44 10 67 47 45 88 
